Solver command line: ['C:\\gurobi1102\\win64\\bin\\gurobi.bat']

Set parameter Username
Academic license - for non-commercial use only - expires 2025-06-25
Read LP format model from file C:\Users\danin\AppData\Local\Temp\tmp0gvoz_ys.pyomo.lp
Reading time = 0.42 seconds
x1: 65100 rows, 65000 columns, 437500 nonzeros
Set parameter Cuts to value 1
Set parameter Presolve to value 1
Set parameter TimeLimit to value 1800
Set parameter MIPGap to value 0.01
Set parameter Threads to value 6
Gurobi Optimizer version 11.0.2 build v11.0.2rc0 (win64 - Windows 11.0 (22631.2))

CPU model: AMD Ryzen 5 4600H with Radeon Graphics, instruction set [SSE2|AVX|AVX2]
Thread count: 6 physical cores, 12 logical processors, using up to 6 threads

Optimize a model with 65100 rows, 65000 columns and 437500 nonzeros
Model fingerprint: 0x73cbc10f
Variable types: 1250 continuous, 63750 integer (63750 binary)
Coefficient statistics:
  Matrix range     [1e+00, 1e+03]
  Objective range  [1e+00, 6e+01]
  Bounds range     [1e+00, 1e+00]
  RHS range        [1e+00, 1e+03]
Presolve removed 45000 rows and 27675 columns
Presolve time: 0.34s
Presolved: 20100 rows, 37325 columns, 196800 nonzeros
Variable types: 1250 continuous, 36075 integer (36075 binary)
Deterministic concurrent LP optimizer: primal and dual simplex
Showing primal log only...

Concurrent spin time: 0.00s

Solved with dual simplex

Use crossover to convert LP symmetric solution to basic solution...

Root relaxation: objective 3.604485e+02, 1615 iterations, 0.14 seconds (0.11 work units)

    Nodes    |    Current Node    |     Objective Bounds      |     Work
 Expl Unexpl |  Obj  Depth IntInf | Incumbent    BestBd   Gap | It/Node Time

     0     0  360.44848    0    8          -  360.44848      -     -    0s
H    0     0                     547.2607779  360.44848  34.1%     -    0s
H    0     0                     487.0969816  360.44848  26.0%     -    1s
H    0     0                     364.4746379  360.44848  1.10%     -    1s
H    0     0                     363.2468004  360.44848  0.77%     -    1s

Cutting planes:
  Learned: 2
  Gomory: 1
  Implied bound: 6
  Clique: 6
  Zero half: 2
  RLT: 4
  PSD: 4

Explored 1 nodes (2145 simplex iterations) in 1.26 seconds (0.85 work units)
Thread count was 6 (of 12 available processors)

Solution count 4: 363.247 364.475 487.097 547.261 

Optimal solution found (tolerance 1.00e-02)
Best objective 3.632468004116e+02, best bound 3.604484833339e+02, gap 0.7704%

